NAME : morphed22-5-17
COMMENT : Generated using the function morphInstances from the R-package netgen (Bossek,2015) - Number of clusters: 5 Alpha: 0.5
TYPE : TSP
DIMENSION : 22
EDGE_WEIGHT_TYPE : EUC_2D
NODE_COORD_SECTION
1 17.7215820308 58.9244189366
2 85.7265291707 78.0812610633
3 47.2626662154 91.0013379068
4 85.2278187569 6.6773000631
5 33.6514604446 53.8623247001
6 36.3892490869 43.8978880365
7 27.185324825 94.9706730916
8 18.6957968745 21.9229508782
9 88.8530432784 27.4169353305
10 17.4927773238 14.6516841434
11 41.9446615032 88.65875574
12 7.9357725779 33.70870037
13 74.649073831 58.1843490027
14 87.514870254 16.332391033
15 88.6416540616 69.9023330603
16 85.901898609 66.9768800402
17 55.3277636874 78.1844432854
18 26.2170279199 65.993078892
19 65.4780785387 71.5135221826
20 36.6005874999 53.0684434224
21 91.8986223415 13.3520000406
22 60.7351259266 59.5506088811
EOF
